param n := 60;
param c := 10000
param : V : p w :=
   0	 490	 480
   1	 266	 256
   2	 274	 264
   3	 383	 373
   4	 307	 297
   5	 340	 330
   6	 422	 412
   7	 291	 281
   8	 317	 307
   9	 402	 392
  10	 296	 286
  11	 332	 322
  12	 442	 432
  13	 275	 265
  14	 313	 303
  15	 488	 478
  16	 265	 255
  17	 277	 267
  18	 416	 406
  19	 278	 268
  20	 336	 326
  21	 375	 365
  22	 265	 255
  23	 390	 380
  24	 417	 407
  25	 289	 279
  26	 324	 314
  27	 388	 378
  28	 303	 293
  29	 339	 329
  30	 372	 362
  31	 283	 273
  32	 375	 365
  33	 497	 487
  34	 262	 252
  35	 271	 261
  36	 432	 422
  37	 270	 260
  38	 328	 318
  39	 420	 410
  40	 276	 266
  41	 334	 324
  42	 420	 410
  43	 273	 263
  44	 337	 327
  45	 380	 370
  46	 270	 260
  47	 380	 370
  48	 464	 454
  49	 260	 250
  50	 306	 296
  51	 376	 366
  52	 291	 281
  53	 363	 353
  54	 486	 476
  55	 270	 260
  56	 274	 264
  57	 475	 465
  58	 266	 256
  59	 289	 279
;

set E :=
   0	   1
   0	   3
   0	   4
   0	   8
   0	  11
   0	  14
   0	  15
   0	  17
   0	  21
   0	  22
   0	  24
   0	  25
   0	  26
   0	  28
   0	  29
   0	  31
   0	  33
   0	  35
   0	  36
   0	  38
   0	  40
   0	  45
   0	  50
   0	  51
   0	  56
   1	   2
   1	   4
   1	   6
   1	   8
   1	   9
   1	  12
   1	  14
   1	  15
   1	  16
   1	  19
   1	  20
   1	  21
   1	  22
   1	  30
   1	  33
   1	  35
   1	  41
   1	  44
   1	  47
   1	  48
   1	  50
   1	  52
   1	  54
   1	  55
   1	  57
   1	  59
   2	   4
   2	   7
   2	  10
   2	  11
   2	  13
   2	  15
   2	  16
   2	  18
   2	  24
   2	  26
   2	  29
   2	  31
   2	  36
   2	  38
   2	  39
   2	  43
   2	  44
   2	  45
   2	  47
   2	  48
   2	  49
   2	  51
   2	  52
   2	  53
   2	  54
   2	  55
   2	  56
   2	  57
   2	  59
   3	   5
   3	   6
   3	   7
   3	  10
   3	  11
   3	  12
   3	  13
   3	  20
   3	  21
   3	  22
   3	  23
   3	  24
   3	  28
   3	  30
   3	  31
   3	  32
   3	  34
   3	  35
   3	  36
   3	  41
   3	  43
   3	  45
   3	  46
   3	  47
   3	  48
   3	  49
   3	  53
   3	  56
   3	  57
   3	  59
   4	   6
   4	   8
   4	  11
   4	  12
   4	  13
   4	  16
   4	  17
   4	  19
   4	  20
   4	  21
   4	  22
   4	  27
   4	  28
   4	  29
   4	  32
   4	  33
   4	  35
   4	  37
   4	  38
   4	  39
   4	  40
   4	  42
   4	  44
   4	  45
   4	  46
   4	  48
   4	  49
   4	  50
   4	  51
   4	  52
   4	  53
   4	  58
   4	  59
   5	   7
   5	   8
   5	  10
   5	  11
   5	  13
   5	  14
   5	  15
   5	  16
   5	  26
   5	  27
   5	  28
   5	  30
   5	  31
   5	  36
   5	  37
   5	  38
   5	  39
   5	  40
   5	  42
   5	  45
   5	  47
   5	  49
   5	  52
   5	  54
   5	  59
   6	   7
   6	  11
   6	  12
   6	  14
   6	  15
   6	  16
   6	  17
   6	  20
   6	  24
   6	  26
   6	  28
   6	  29
   6	  31
   6	  32
   6	  33
   6	  34
   6	  36
   6	  38
   6	  39
   6	  41
   6	  43
   6	  44
   6	  46
   6	  47
   6	  48
   6	  50
   6	  51
   6	  53
   6	  55
   6	  56
   6	  57
   6	  58
   6	  59
   7	   8
   7	   9
   7	  12
   7	  14
   7	  15
   7	  16
   7	  17
   7	  26
   7	  30
   7	  32
   7	  37
   7	  40
   7	  42
   7	  45
   7	  46
   7	  47
   7	  52
   7	  53
   7	  54
   7	  55
   7	  56
   7	  58
   7	  59
   8	  10
   8	  11
   8	  14
   8	  15
   8	  16
   8	  18
   8	  19
   8	  20
   8	  21
   8	  25
   8	  27
   8	  29
   8	  32
   8	  33
   8	  34
   8	  38
   8	  45
   8	  47
   8	  48
   8	  49
   8	  50
   8	  51
   8	  53
   8	  56
   8	  58
   8	  59
   9	  10
   9	  11
   9	  12
   9	  13
   9	  14
   9	  16
   9	  17
   9	  18
   9	  19
   9	  20
   9	  21
   9	  22
   9	  24
   9	  25
   9	  27
   9	  28
   9	  31
   9	  32
   9	  33
   9	  35
   9	  36
   9	  39
   9	  40
   9	  42
   9	  45
   9	  46
   9	  50
   9	  54
   9	  55
   9	  56
   9	  58
  10	  12
  10	  13
  10	  14
  10	  17
  10	  20
  10	  21
  10	  22
  10	  23
  10	  28
  10	  30
  10	  31
  10	  34
  10	  35
  10	  40
  10	  42
  10	  45
  10	  46
  10	  50
  10	  51
  10	  53
  10	  55
  10	  56
  10	  57
  10	  58
  10	  59
  11	  16
  11	  17
  11	  18
  11	  19
  11	  20
  11	  23
  11	  31
  11	  32
  11	  33
  11	  34
  11	  38
  11	  40
  11	  42
  11	  43
  11	  44
  11	  49
  11	  52
  11	  54
  11	  56
  11	  58
  12	  14
  12	  16
  12	  17
  12	  19
  12	  20
  12	  21
  12	  22
  12	  23
  12	  24
  12	  25
  12	  28
  12	  34
  12	  35
  12	  37
  12	  39
  12	  42
  12	  43
  12	  44
  12	  45
  12	  47
  12	  48
  12	  50
  12	  54
  12	  56
  12	  57
  12	  59
  13	  14
  13	  18
  13	  19
  13	  21
  13	  27
  13	  31
  13	  32
  13	  33
  13	  35
  13	  36
  13	  37
  13	  39
  13	  40
  13	  43
  13	  45
  13	  49
  13	  50
  13	  51
  13	  52
  13	  53
  13	  55
  13	  58
  14	  15
  14	  17
  14	  21
  14	  22
  14	  23
  14	  27
  14	  28
  14	  29
  14	  30
  14	  31
  14	  32
  14	  36
  14	  39
  14	  42
  14	  44
  14	  45
  14	  48
  14	  50
  14	  52
  14	  55
  14	  56
  15	  17
  15	  19
  15	  20
  15	  21
  15	  22
  15	  23
  15	  24
  15	  25
  15	  27
  15	  29
  15	  30
  15	  36
  15	  39
  15	  40
  15	  43
  15	  47
  15	  49
  15	  51
  15	  53
  15	  54
  15	  55
  15	  57
  15	  58
  16	  19
  16	  21
  16	  23
  16	  26
  16	  27
  16	  28
  16	  29
  16	  30
  16	  32
  16	  37
  16	  38
  16	  39
  16	  40
  16	  41
  16	  42
  16	  43
  16	  45
  16	  46
  16	  48
  16	  49
  16	  57
  16	  58
  16	  59
  17	  19
  17	  20
  17	  25
  17	  27
  17	  28
  17	  30
  17	  31
  17	  34
  17	  35
  17	  36
  17	  37
  17	  40
  17	  42
  17	  43
  17	  48
  17	  50
  17	  51
  17	  53
  17	  55
  17	  56
  17	  57
  17	  58
  18	  20
  18	  21
  18	  22
  18	  24
  18	  28
  18	  29
  18	  30
  18	  31
  18	  34
  18	  35
  18	  36
  18	  42
  18	  43
  18	  45
  18	  49
  18	  51
  18	  52
  18	  53
  18	  54
  18	  55
  18	  57
  18	  59
  19	  20
  19	  22
  19	  26
  19	  27
  19	  29
  19	  30
  19	  33
  19	  35
  19	  36
  19	  37
  19	  38
  19	  41
  19	  42
  19	  43
  19	  44
  19	  50
  19	  52
  19	  53
  19	  55
  20	  23
  20	  24
  20	  25
  20	  26
  20	  27
  20	  33
  20	  34
  20	  36
  20	  37
  20	  39
  20	  41
  20	  44
  20	  45
  20	  46
  20	  47
  20	  51
  20	  53
  20	  54
  20	  56
  20	  58
  20	  59
  21	  23
  21	  24
  21	  26
  21	  27
  21	  28
  21	  31
  21	  34
  21	  36
  21	  38
  21	  40
  21	  44
  21	  45
  21	  46
  21	  48
  21	  49
  21	  50
  21	  51
  21	  52
  21	  55
  21	  56
  22	  24
  22	  25
  22	  26
  22	  31
  22	  34
  22	  35
  22	  37
  22	  38
  22	  39
  22	  41
  22	  42
  22	  43
  22	  45
  22	  46
  22	  50
  22	  51
  22	  52
  22	  54
  22	  55
  22	  58
  23	  26
  23	  28
  23	  29
  23	  30
  23	  31
  23	  32
  23	  34
  23	  38
  23	  39
  23	  43
  23	  44
  23	  45
  23	  46
  23	  47
  23	  49
  23	  50
  23	  51
  23	  52
  23	  53
  23	  55
  23	  56
  23	  58
  23	  59
  24	  25
  24	  28
  24	  29
  24	  30
  24	  31
  24	  32
  24	  34
  24	  35
  24	  36
  24	  38
  24	  40
  24	  42
  24	  43
  24	  44
  24	  45
  24	  47
  24	  50
  24	  51
  24	  54
  24	  55
  24	  57
  24	  59
  25	  27
  25	  28
  25	  31
  25	  32
  25	  34
  25	  35
  25	  37
  25	  38
  25	  39
  25	  40
  25	  41
  25	  44
  25	  46
  25	  51
  25	  53
  25	  55
  25	  57
  25	  58
  25	  59
  26	  27
  26	  28
  26	  29
  26	  38
  26	  39
  26	  41
  26	  42
  26	  44
  26	  46
  26	  48
  26	  49
  26	  53
  27	  29
  27	  34
  27	  35
  27	  36
  27	  37
  27	  39
  27	  41
  27	  42
  27	  49
  27	  50
  27	  54
  27	  55
  27	  56
  27	  59
  28	  29
  28	  30
  28	  32
  28	  33
  28	  35
  28	  37
  28	  40
  28	  42
  28	  43
  28	  45
  28	  47
  28	  48
  28	  50
  28	  51
  28	  54
  28	  57
  29	  31
  29	  33
  29	  35
  29	  36
  29	  39
  29	  40
  29	  42
  29	  46
  29	  47
  29	  48
  29	  49
  29	  51
  29	  54
  29	  57
  29	  59
  30	  31
  30	  33
  30	  34
  30	  37
  30	  38
  30	  39
  30	  43
  30	  44
  30	  46
  30	  48
  30	  49
  30	  51
  30	  54
  30	  55
  30	  56
  31	  32
  31	  35
  31	  38
  31	  40
  31	  41
  31	  42
  31	  44
  31	  45
  31	  46
  31	  48
  31	  49
  31	  50
  31	  58
  32	  34
  32	  36
  32	  37
  32	  40
  32	  42
  32	  46
  32	  48
  32	  49
  32	  50
  32	  51
  32	  52
  32	  54
  32	  58
  33	  34
  33	  35
  33	  36
  33	  37
  33	  39
  33	  43
  33	  45
  33	  47
  33	  48
  33	  49
  33	  53
  33	  54
  33	  57
  34	  36
  34	  37
  34	  38
  34	  40
  34	  43
  34	  44
  34	  45
  34	  46
  34	  48
  34	  52
  35	  36
  35	  38
  35	  41
  35	  45
  35	  46
  35	  48
  35	  49
  35	  52
  35	  53
  35	  55
  35	  57
  35	  59
  36	  39
  36	  42
  36	  44
  36	  47
  36	  48
  36	  49
  36	  52
  36	  53
  36	  55
  36	  56
  36	  57
  36	  59
  37	  38
  37	  39
  37	  43
  37	  44
  37	  45
  37	  46
  37	  47
  37	  48
  37	  52
  37	  53
  37	  55
  37	  56
  37	  57
  37	  58
  38	  40
  38	  41
  38	  43
  38	  46
  38	  47
  38	  48
  38	  50
  38	  52
  38	  56
  38	  57
  38	  58
  38	  59
  39	  41
  39	  44
  39	  46
  39	  48
  39	  49
  39	  50
  39	  53
  39	  55
  39	  56
  39	  58
  40	  42
  40	  46
  40	  48
  40	  49
  40	  52
  40	  53
  40	  55
  40	  58
  41	  44
  41	  45
  41	  48
  41	  50
  41	  51
  41	  54
  41	  58
  42	  43
  42	  45
  42	  47
  42	  49
  42	  57
  42	  58
  43	  45
  43	  46
  43	  47
  43	  48
  43	  51
  43	  53
  43	  56
  44	  46
  44	  47
  44	  48
  44	  50
  44	  54
  44	  55
  44	  57
  44	  58
  45	  46
  45	  47
  45	  49
  45	  50
  45	  51
  45	  55
  45	  57
  45	  59
  46	  47
  46	  49
  46	  51
  46	  55
  46	  58
  46	  59
  47	  49
  47	  52
  47	  55
  47	  56
  47	  57
  47	  58
  48	  51
  48	  54
  48	  56
  48	  59
  49	  51
  49	  53
  49	  55
  49	  56
  49	  59
  50	  51
  50	  53
  50	  54
  50	  56
  50	  57
  50	  59
  51	  54
  51	  55
  51	  59
  52	  53
  52	  55
  52	  56
  52	  57
  52	  58
  52	  59
  53	  55
  53	  56
  53	  59
  54	  56
  54	  57
  54	  58
  55	  57
  55	  59
  56	  59
  57	  58
;
